p tdp 111 110
102 103
94 109
48 47
59 95
15 88
1 105
63 110
6 41
99 82
12 22
106 107
103 10
61 69
91 31
83 41
74 101
77 73
66 96
8 87
50 85
88 25
82 29
16 3
87 26
43 4
24 71
9 111
25 30
94 7
14 91
3 108
109 107
65 70
72 46
100 19
93 17
81 104
30 79
80 42
27 76
53 9
75 43
95 101
44 70
35 23
45 62
36 16
60 67
86 56
2 80
92 73
24 107
10 68
64 66
33 90
67 34
11 20
54 99
37 82
17 85
62 65
42 18
68 52
8 95
20 77
38 49
110 25
51 77
55 66
28 16
70 54
5 42
105 80
31 64
106 32
93 67
37 104
84 40
97 58
80 111
35 40
57 58
78 27
20 25
47 13
90 62
80 49
56 84
102 100
58 7
12 72
47 66
79 89
108 17
34 43
98 8
83 10
87 86
67 12
94 55
11 106
10 97
69 37
61 76
72 10
21 39
35 9
39 81
27 96
110 38
